58 94
86 92
27 22
60 15
19 89
1 70
26 85
12 33
53 93
47 20
36 34
48 38
30 41
83 12
26 10
6 12
59 70
71 32
51 64
53 32
61 28
72 39
23 27
7 85
79 87
19 59
48 67
76 81
51 72
20 93
82 95
39 64
92 7
1 5
31 31
5 8
85 0
29 64
62 67
21 87
18 5
90 9
22 63
12 41
44 37
57 91
45 53
38 40
81 3
22 81
12 31
0 91
1 33
76 72
65 54
49 31
46 34
7 65
51 62
42 78
22 69
6 81
55 19
36 92
97 90
76 4
99 47
39 4
94 79
27 41
29 54
85 60
50 91
90 17
63 81
